20
1 0 120
2 0 99
2 1 4
3 0 103
3 1 14
3 2 98
4 0 42
4 1 32
4 2 2
4 3 87
5 0 117
5 1 82
5 2 72
5 3 110
5 4 87
6 0 67
6 1 66
6 2 41
6 3 63
6 4 63
6 5 30
7 0 64
7 1 31
7 2 64
7 3 63
7 4 56
7 5 27
7 6 104
8 0 107
8 1 1
8 2 78
8 3 84
8 4 95
8 5 105
8 6 13
8 7 80
9 0 117
9 1 64
9 2 106
9 3 32
9 4 106
9 5 27
9 6 65
9 7 46
9 8 100
10 0 23
10 1 37
10 2 10
10 3 37
10 4 97
10 5 11
10 6 55
10 7 78
10 8 6
10 9 7
11 0 34
11 1 107
11 2 78
11 3 23
11 4 85
11 5 86
11 6 100
11 7 46
11 8 18
11 9 67
11 10 50
12 0 93
12 1 32
12 2 55
12 3 88
12 4 53
12 5 76
12 6 25
12 7 80
12 8 90
12 9 48
12 10 92
12 11 86
13 0 107
13 1 20
13 2 13
13 3 111
13 4 51
13 5 99
13 6 1
13 7 120
13 8 108
13 9 11
13 10 31
13 11 12
13 12 88
14 0 115
14 1 51
14 2 2
14 3 14
14 4 43
14 5 34
14 6 88
14 7 60
14 8 78
14 9 25
14 10 69
14 11 113
14 12 106
14 13 50
15 0 67
15 1 50
15 2 100
15 3 103
15 4 58
15 5 93
15 6 24
15 7 108
15 8 112
15 9 13
15 10 83
15 11 45
15 12 41
15 13 68
15 14 82
16 0 58
16 1 69
16 2 109
16 3 86
16 4 78
16 5 107
16 6 46
16 7 12
16 8 46
16 9 14
16 10 86
16 11 33
16 12 77
16 13 50
16 14 30
16 15 98
17 0 39
17 1 2
17 2 64
17 3 13
17 4 102
17 5 92
17 6 115
17 7 23
17 8 4
17 9 38
17 10 16
17 11 32
17 12 65
17 13 54
17 14 29
17 15 91
17 16 98
18 0 83
18 1 47
18 2 10
18 3 26
18 4 36
18 5 103
18 6 58
18 7 73
18 8 40
18 9 86
18 10 58
18 11 108
18 12 27
18 13 10
18 14 104
18 15 7
18 16 28
18 17 24
19 0 43
19 1 80
19 2 68
19 3 1
19 4 21
19 5 16
19 6 24
19 7 100
19 8 42
19 9 114
19 10 59
19 11 48
19 12 45
19 13 92
19 14 33
19 15 49
19 16 69
19 17 12
19 18 120
